
n_res = 8;
rcap = [144, 145, 143, 148, 756, 814, 783, 790];
rtype = [1, 1, 1, 1, 2, 2, 2, 2];
n_tasks = 50;
modes =  [{1, 2, 3}, {4, 5, 6}, {7, 8, 9}, {10, 11, 12}, {13, 14, 15}, {16, 17, 18}, {19, 20, 21}, {22, 23, 24}, {25, 26, 27}, {28, 29, 30}, {31, 32, 33}, {34, 35, 36}, {37, 38, 39}, {40, 41, 42}, {43, 44, 45}, {46, 47, 48}, {49, 50, 51}, {52, 53, 54}, {55, 56, 57}, {58, 59, 60}, {61, 62, 63}, {64, 65, 66}, {67, 68, 69}, {70, 71, 72}, {73, 74, 75}, {76, 77, 78}, {79, 80, 81}, {82, 83, 84}, {85, 86, 87}, {88, 89, 90}, {91, 92, 93}, {94, 95, 96}, {97, 98, 99}, {100, 101, 102}, {103, 104, 105}, {106, 107, 108}, {109, 110, 111}, {112, 113, 114}, {115, 116, 117}, {118, 119, 120}, {121, 122, 123}, {124, 125, 126}, {127, 128, 129}, {130, 131, 132}, {133, 134, 135}, {136, 137, 138}, {139, 140, 141}, {142, 143, 144}, {145, 146, 147}, {148, 149, 150}];
succ =  [{22, 17, 14, 3}, {20, 19, 13, 9}, {34, 32, 28, 27, 26, 25, 23, 21, 20, 15}, {20, 8}, {20, 9}, {32, 28, 26, 23, 20, 19, 15}, {34, 32, 28, 27, 26, 25, 23, 15}, {50, 37, 28, 25, 19, 14}, {50, 28, 27, 25, 14}, {50, 37, 28, 25, 14}, {34, 27, 23, 21, 15}, {50, 37, 36, 34, 32, 31, 30, 29, 26, 24}, {50, 49, 37, 36, 32, 31, 30, 29, 24}, {36, 34, 32, 31, 30, 26, 24}, {50, 49, 47, 36, 31, 30, 29, 24}, {36, 35, 34, 30, 29, 26, 23}, {50, 47, 37, 36, 25, 24}, {48, 38, 36, 35, 32, 30, 25}, {46, 38, 36, 35, 34, 33, 31, 29}, {47, 46, 44, 37, 24}, {50, 48, 47, 38, 33, 30, 29}, {47, 38, 36, 35, 33, 30}, {48, 46, 45, 44, 42, 39, 33}, {48, 38, 35, 33}, {49, 46, 33, 29}, {49, 45, 44, 43, 41, 40, 38}, {43, 42, 41, 40, 38, 36}, {45, 42, 40, 30}, {44, 43, 42, 41, 40, 39}, {46, 43, 41, 39}, {42, 41, 40, 39}, {47, 45, 41, 40}, {43, 41, 40}, {47, 42, 40}, {45, 42}, {44, 39}, {38}, {39}, {}, {}, {}, {}, {}, {}, {}, {}, {}, {}, {}, {}];
n_opt = 150;
dur = [4, 10, 24, 3, 7, 23, 3, 16, 22, 6, 9, 18, 15, 19, 27, 19, 28, 29, 3, 14, 28, 1, 18, 23, 1, 15, 30, 2, 19, 28, 24, 25, 26, 13, 14, 21, 16, 21, 24, 1, 11, 23, 7, 14, 24, 15, 22, 30, 7, 19, 29, 3, 14, 26, 20, 21, 23, 12, 22, 27, 1, 8, 18, 4, 22, 26, 15, 22, 23, 6, 10, 11, 7, 10, 29, 18, 19, 29, 12, 13, 20, 1, 22, 27, 15, 18, 27, 3, 4, 27, 12, 14, 25, 8, 18, 19, 2, 14, 16, 13, 15, 25, 13, 19, 25, 7, 17, 25, 3, 18, 26, 8, 10, 26, 23, 24, 30, 6, 21, 25, 5, 6, 7, 7, 14, 25, 6, 18, 29, 13, 23, 28, 6, 11, 16, 10, 18, 19, 7, 12, 14, 4, 6, 20, 1, 13, 26, 13, 15, 29];
rreq = [|5, 3, 2, 4, 4, 4, 3, 2, 1, 5, 2, 2, 5, 5, 5, 4, 4, 4, 3, 2, 2, 2, 2, 2, 2, 2, 2, 4, 4, 3, 4, 4, 3, 3, 3, 3, 4, 4, 4, 5, 3, 2, 2, 2, 2, 4, 3, 2, 3, 3, 1, 4, 2, 2, 3, 2, 1, 5, 4, 3, 3, 2, 1, 4, 3, 1, 4, 4, 3, 5, 5, 5, 5, 5, 5, 5, 3, 3, 1, 1, 1, 4, 3, 2, 2, 1, 1, 3, 2, 1, 3, 1, 1, 5, 4, 4, 5, 4, 2, 4, 4, 4, 4, 4, 4, 3, 2, 2, 5, 4, 3, 3, 3, 1, 1, 1, 1, 5, 2, 2, 4, 3, 3, 4, 3, 2, 3, 2, 1, 4, 3, 2, 4, 2, 2, 3, 2, 1, 3, 3, 2, 4, 4, 4, 3, 3, 2, 4, 3, 1
 |3, 3, 3, 2, 1, 1, 4, 4, 4, 1, 1, 1, 4, 3, 2, 3, 3, 3, 4, 3, 1, 3, 3, 3, 3, 3, 1, 3, 3, 3, 2, 2, 2, 4, 4, 4, 3, 3, 3, 3, 2, 1, 3, 3, 3, 2, 1, 1, 3, 3, 3, 5, 5, 5, 1, 1, 1, 5, 3, 3, 4, 2, 2, 3, 3, 3, 5, 3, 2, 5, 3, 2, 5, 4, 3, 4, 4, 3, 4, 3, 3, 5, 3, 2, 5, 4, 3, 3, 2, 1, 4, 2, 2, 4, 3, 1, 4, 3, 2, 5, 2, 1, 4, 4, 4, 2, 2, 2, 4, 2, 1, 3, 2, 2, 5, 4, 4, 3, 3, 3, 1, 1, 1, 3, 2, 2, 4, 4, 4, 5, 4, 3, 2, 2, 1, 3, 2, 2, 5, 3, 2, 5, 5, 5, 3, 2, 2, 4, 2, 1
 |4, 4, 4, 2, 1, 1, 3, 3, 2, 4, 4, 3, 3, 2, 2, 2, 2, 2, 3, 2, 2, 5, 3, 3, 4, 4, 2, 2, 2, 2, 5, 5, 5, 4, 4, 4, 5, 4, 4, 3, 3, 3, 2, 2, 2, 2, 2, 2, 5, 5, 5, 4, 4, 4, 4, 2, 2, 3, 2, 2, 4, 3, 1, 5, 4, 4, 2, 2, 2, 2, 1, 1, 3, 2, 1, 4, 3, 3, 3, 2, 2, 5, 3, 2, 3, 3, 3, 1, 1, 1, 3, 3, 2, 4, 4, 2, 3, 2, 2, 3, 2, 2, 5, 4, 4, 4, 3, 3, 5, 5, 5, 3, 3, 3, 5, 5, 5, 2, 1, 1, 4, 4, 3, 2, 2, 2, 2, 2, 2, 2, 1, 1, 5, 4, 3, 2, 2, 2, 2, 1, 1, 2, 1, 1, 3, 3, 3, 4, 3, 3
 |4, 3, 2, 2, 2, 2, 4, 3, 2, 5, 3, 2, 1, 1, 1, 3, 3, 3, 5, 4, 3, 5, 4, 4, 4, 4, 4, 3, 3, 2, 4, 3, 2, 2, 1, 1, 2, 2, 1, 4, 2, 2, 5, 4, 2, 4, 3, 3, 4, 4, 4, 4, 4, 4, 3, 3, 3, 5, 4, 3, 2, 2, 2, 2, 1, 1, 4, 3, 3, 3, 3, 3, 4, 4, 3, 4, 3, 2, 5, 3, 1, 1, 1, 1, 2, 2, 2, 5, 4, 4, 4, 3, 2, 5, 3, 2, 4, 3, 3, 5, 4, 2, 2, 1, 1, 4, 3, 3, 4, 4, 4, 3, 3, 2, 5, 3, 3, 5, 3, 3, 1, 1, 1, 2, 1, 1, 3, 2, 2, 2, 2, 2, 1, 1, 1, 3, 2, 1, 3, 3, 2, 4, 4, 4, 2, 2, 2, 4, 4, 4
 |21, 20, 13, 20, 17, 14, 8, 6, 5, 17, 13, 8, 27, 20, 16, 14, 13, 13, 24, 21, 20, 22, 17, 14, 28, 28, 28, 14, 8, 5, 15, 15, 14, 11, 10, 10, 20, 20, 20, 11, 10, 9, 27, 25, 18, 14, 13, 12, 11, 8, 7, 10, 7, 5, 9, 7, 5, 28, 20, 20, 23, 21, 20, 12, 8, 7, 23, 22, 8, 24, 24, 24, 18, 16, 10, 15, 15, 15, 23, 19, 11, 16, 12, 1, 14, 12, 12, 16, 11, 8, 19, 18, 16, 29, 28, 27, 15, 14, 12, 17, 15, 14, 9, 8, 7, 22, 20, 16, 8, 7, 5, 13, 11, 7, 20, 17, 13, 21, 19, 14, 2, 2, 2, 1, 1, 1, 21, 19, 11, 30, 22, 20, 15, 14, 14, 29, 26, 25, 9, 9, 9, 22, 13, 12, 17, 16, 12, 25, 25, 24
 |29, 27, 21, 25, 23, 23, 13, 10, 5, 14, 12, 11, 8, 7, 6, 20, 19, 19, 28, 25, 20, 21, 21, 21, 14, 13, 12, 20, 18, 10, 16, 14, 12, 11, 10, 7, 14, 12, 10, 25, 24, 21, 26, 16, 4, 27, 21, 18, 20, 17, 17, 12, 12, 4, 11, 8, 5, 9, 8, 8, 15, 10, 9, 25, 14, 12, 25, 19, 14, 24, 14, 14, 27, 26, 23, 19, 17, 17, 28, 28, 26, 27, 25, 21, 16, 16, 14, 17, 15, 9, 19, 18, 16, 24, 19, 11, 24, 14, 6, 24, 20, 16, 23, 15, 10, 28, 28, 26, 10, 8, 8, 7, 4, 1, 21, 19, 12, 16, 12, 5, 25, 25, 25, 8, 6, 3, 15, 13, 13, 21, 20, 19, 17, 16, 16, 17, 11, 8, 20, 16, 2, 23, 12, 9, 25, 17, 15, 22, 21, 19
 |28, 27, 25, 21, 17, 8, 3, 1, 1, 13, 6, 4, 10, 8, 8, 16, 16, 10, 18, 11, 8, 18, 14, 13, 30, 29, 28, 11, 9, 5, 26, 25, 25, 24, 18, 12, 21, 15, 15, 24, 11, 4, 19, 19, 14, 14, 6, 2, 26, 17, 12, 14, 13, 8, 15, 8, 6, 21, 18, 10, 24, 23, 18, 22, 20, 19, 24, 21, 19, 29, 28, 27, 4, 4, 3, 5, 4, 4, 23, 19, 19, 23, 22, 22, 25, 24, 24, 17, 12, 6, 13, 12, 5, 24, 15, 4, 21, 20, 20, 18, 17, 16, 2, 2, 2, 24, 17, 9, 26, 25, 24, 11, 11, 10, 23, 21, 20, 17, 13, 11, 7, 7, 5, 24, 15, 11, 15, 13, 7, 8, 5, 2, 23, 13, 12, 24, 21, 18, 27, 24, 23, 29, 21, 11, 17, 12, 5, 27, 24, 24
 |28, 28, 28, 22, 21, 21, 28, 28, 24, 29, 29, 29, 17, 9, 4, 20, 17, 10, 26, 23, 23, 28, 28, 28, 29, 29, 28, 17, 17, 15, 16, 15, 14, 20, 15, 13, 23, 23, 23, 11, 6, 2, 23, 23, 21, 16, 15, 12, 22, 15, 4, 27, 26, 25, 19, 13, 9, 15, 11, 11, 23, 18, 11, 13, 10, 6, 25, 15, 8, 17, 13, 8, 12, 10, 8, 7, 5, 2, 6, 6, 5, 25, 25, 24, 24, 20, 17, 14, 11, 3, 16, 11, 7, 19, 19, 18, 16, 11, 8, 23, 19, 11, 16, 7, 2, 29, 23, 21, 27, 23, 20, 23, 19, 9, 8, 8, 7, 28, 16, 13, 7, 6, 3, 24, 22, 21, 7, 7, 5, 13, 8, 8, 23, 12, 7, 7, 6, 6, 3, 3, 2, 18, 13, 12, 20, 12, 5, 15, 15, 15|];